CS5099-all-submission/Code-in-middle/CS5099_programming/picrossSolver/smile.param
language ESSENCE' 1.0

letting mainRow be 11
letting mainCol be 13
letting topRows be 4
letting leftCols be 4

letting leftMatrix be [
[6, 0, 0, 0],
[1, 1, 0, 0],
[1, 1, 1, 1],
[1, 1, 1, 2],
[1, 3, 0, 0],

[1, 1, 1, 3],
[1, 1, 1, 3],
[1, 4, 2, 0],
[1, 2, 0, 0],
[7, 0, 0, 0],
[0, 0, 0, 0]
]

letting topMatrix be [
[0, 6, 1, 1, 1,  1, 1, 1, 1, 1,   7, 5, 3],
[0, 0, 1, 2, 2,  1, 1, 2, 2, 2,   0, 0, 0],
[0, 0, 0, 1, 1,  1, 1, 1, 1, 0,   0, 0, 0],
[0, 0, 0, 0, 1,  0, 0, 1, 0, 0,   0, 0, 0]
]
